
Gurobi 6.5.2 (win64) logging started 07/23/16 03:09:54


Gurobi 6.5.2 (win64) logging started 07/23/16 03:09:54

Optimize a model with 26504 rows, 1513 columns and 57193 nonzeros
Coefficient statistics:
  Matrix range    [4e-06, 1e+03]
  Objective range [1e+00, 1e+00]
  Bounds range    [1e+00, 1e+00]
  RHS range       [1e+00, 1e+03]
Found heuristic solution: objective 2078.33
Presolve removed 26479 rows and 1488 columns
Presolve time: 0.01s
Presolved: 25 rows, 25 columns, 75 nonzeros
Found heuristic solution: objective 241.3186353
Variable types: 25 continuous, 0 integer (0 binary)

Root relaxation: objective 2.032592e+02, 18 iterations, 0.00 seconds

    Nodes    |    Current Node    |     Objective Bounds      |     Work
 Expl Unexpl |  Obj  Depth IntInf | Incumbent    BestBd   Gap | It/Node Time

*    0     0               0     203.2592250  203.25923  0.00%     -    0s

Explored 0 nodes (18 simplex iterations) in 0.02 seconds
Thread count was 8 (of 8 available processors)

Optimal solution found (tolerance 1.00e-04)
Best objective 2.032592250438e+02, best bound 2.032592250438e+02, gap 0.0%

Wrote requested result file 'H2\instance21\\Results21EC_Sol2.lp'

